MacMPEC/Problems/water-FL.nl
g3 0 1 0	# problem tmp
 213 160 1 0 116	# vars, constraints, objectives, ranges, eqns
 44 1 44 0	# nonlinear constrs, objs; ccons: lin, nonlin
 0 0	# network constraints: nonlinear, linear
 132 150 44	# nonlinear vars in constraints, objectives, both
 0 0 0 1	# linear network variables; functions; arith, flags
 0 0 0 0 0	# discrete variables: binary, integer, nonlinear (b,c,o)
 537 150	# nonzeros in Jacobian, gradients
 0 0	# max name lengths: constraints, variables
 0 0 0 0 0	# common exprs: b,c,o,c1,o1
C0
o16
o3
o2
n0.9284294534319774
o1
o5
v44
n2
o5
v88
n2
o5
v0
n5.33
C1
o16
o3
o2
n1.8025000000000002
o1
o5
v45
n2
o5
v89
n2
o5
v1
n5.33
C2
o16
o3
o2
n0.9892826946833752
o1
o5
v46
n2
o5
v90
n2
o5
v2
n5.33
C3
o16
o3
o2
n1.0616996985965477
o1
o5
v47
n2
o5
v91
n2
o5
v3
n5.33
C4
o16
o3
o2
n1.5663113515517917
o1
o5
v48
n2
o5
v92
n2
o5
v4
n5.33
C5
o16
o3
o2
n1.3129975247501424
o1
o5
v49
n2
o5
v93
n2
o5
v5
n5.33
C6
o16
o3
o2
n1.3129975247501424
o1
o5
v50
n2
o5
v94
n2
o5
v6
n5.33
C7
o16
o3
o2
n1.3129975247501424
o1
o5
v51
n2
o5
v95
n2
o5
v7
n5.33
C8
o16
o3
o2
n1.3129975247501424
o1
o5
v52
n2
o5
v96
n2
o5
v8
n5.33
C9
o16
o3
o2
n1.0616996985965477
o1
o5
v53
n2
o5
v97
n2
o5
v9
n5.33
C10
o16
o3
o2
n1.3129975247501424
o1
o5
v54
n2
o5
v98
n2
o5
v10
n5.33
C11
o16
o3
o2
n1.386679937837135
o1
o5
v55
n2
o5
v99
n2
o5
v11
n5.33
C12
o16
o3
o2
n1.7273625126185879
o1
o5
v56
n2
o5
v100
n2
o5
v12
n5.33
C13
o16
o3
o2
n1.03
o1
o5
v57
n2
o5
v101
n2
o5
v13
n5.33
C14
o16
o3
o2
n1.3129975247501424
o1
o5
v58
n2
o5
v102
n2
o5
v14
n5.33
C15
o16
o3
o2
n2.06
o1
o5
v59
n2
o5
v103
n2
o5
v15
n5.33
C16
o16
o3
o2
n1.0924799769332159
o1
o5
v60
n2
o5
v104
n2
o5
v16
n5.33
C17
o16
o3
o2
n1.151575008412392
o1
o5
v61
n2
o5
v105
n2
o5
v17
n5.33
C18
o16
o3
o2
n1.151575008412392
o1
o5
v62
n2
o5
v106
n2
o5
v18
n5.33
C19
o16
o3
o2
n1.0924799769332159
o1
o5
v63
n2
o5
v107
n2
o5
v19
n5.33
C20
o16
o3
o2
n1.151575008412392
o1
o5
v64
n2
o5
v108
n2
o5
v20
n5.33
C21
o16
o3
o2
n1.3129975247501424
o1
o5
v65
n2
o5
v109
n2
o5
v21
n5.33
C22
o16
o3
o2
n1.2875
o1
o5
v66
n2
o5
v110
n2
o5
v22
n5.33
C23
o16
o3
o2
n1.6285729949867156
o1
o5
v67
n2
o5
v111
n2
o5
v23
n5.33
C24
o16
o3
o2
n1.151575008412392
o1
o5
v68
n2
o5
v112
n2
o5
v24
n5.33
C25
o16
o3
o2
n1.0924799769332159
o1
o5
v69
n2
o5
v113
n2
o5
v25
n5.33
C26
o16
o3
o2
n2.8325000000000005
o1
o5
v70
n2
o5
v114
n2
o5
v26
n5.33
C27
o16
o3
o2
n1.5484295269724098
o1
o5
v71
n2
o5
v115
n2
o5
v27
n5.33
C28
o16
o3
o2
n2.06
o1
o5
v72
n2
o5
v116
n2
o5
v28
n5.33
C29
o16
o3
o2
n1.8568589068639547
o1
o5
v73
n2
o5
v117
n2
o5
v29
n5.33
C30
o16
o3
o2
n1.151575008412392
o1
o5
v74
n2
o5
v118
n2
o5
v30
n5.33
C31
o16
o3
o2
n2.4428594924800735
o1
o5
v75
n2
o5
v119
n2
o5
v31
n5.33
C32
o16
o3
o2
n1.4566399692442882
o1
o5
v76
n2
o5
v120
n2
o5
v32
n5.33
C33
o16
o3
o2
n1.4566399692442882
o1
o5
v77
n2
o5
v121
n2
o5
v33
n5.33
C34
o16
o3
o2
n1.8746282964897336
o1
o5
v78
n2
o5
v122
n2
o5
v34
n5.33
C35
o16
o3
o2
n1.501470112922665
o1
o5
v79
n2
o5
v123
n2
o5
v35
n5.33
C36
o16
o3
o2
n1.6285729949867156
o1
o5
v80
n2
o5
v124
n2
o5
v36
n5.33
C37
o16
o3
o2
n1.8746282964897336
o1
o5
v81
n2
o5
v125
n2
o5
v37
n5.33
C38
o16
o3
o2
n1.151575008412392
o1
o5
v82
n2
o5
v126
n2
o5
v38
n5.33
C39
o16
o3
o2
n1.151575008412392
o1
o5
v83
n2
o5
v127
n2
o5
v39
n5.33
C40
o16
o3
o2
n2.6883789260444666
o1
o5
v84
n2
o5
v128
n2
o5
v40
n5.33
C41
o16
o3
o2
n1.82079996155536
o1
o5
v85
n2
o5
v129
n2
o5
v41
n5.33
C42
o16
o3
o2
n1.4566399692442882
o1
o5
v86
n2
o5
v130
n2
o5
v42
n5.33
C43
o16
o3
o2
n2.2000809644192647
o1
o5
v87
n2
o5
v131
n2
o5
v43
n5.33
C44
n0
C45
n0
C46
n0
C47
n0
C48
n0
C49
n0
C50
n0
C51
n0
C52
n0
C53
n0
C54
n0
C55
n0
C56
n0
C57
n0
C58
n0
C59
n0
C60
n0
C61
n0
C62
n0
C63
n0
C64
n0
C65
n0
C66
n0
C67
n0
C68
n0
C69
n0
C70
n0
C71
n0
C72
n0
C73
n0
C74
n0
C75
n0
C76
n0
C77
n0
C78
n0
C79
n0
C80
n0
C81
n0
C82
n0
C83
n0
C84
n0
C85
n0
C86
n0
C87
n0
C88
n0
C89
n0
C90
n0
C91
n0
C92
n0
C93
n0
C94
n0
C95
n0
C96
n0
C97
n0
C98
n0
C99
n0
C100
n0
C101
n0
C102
n0
C103
n0
C104
n0
C105
n0
C106
n0
C107
n0
C108
n0
C109
n0
C110
n0
C111
n0
C112
n0
C113
n0
C114
n0
C115
n0
C116
n0
C117
n0
C118
n0
C119
n0
C120
n0
C121
n0
C122
n0
C123
n0
C124
n0
C125
n0
C126
n0
C127
n0
C128
n0
C129
n0
C130
n0
C131
n0
C132
n0
C133
n0
C134
n0
C135
n0
C136
n0
C137
n0
C138
n0
C139
n0
C140
n0
C141
n0
C142
n0
C143
n0
C144
n0
C145
n0
C146
n0
C147
n0
C148
n0
C149
n0
C150
n0
C151
n0
C152
n0
C153
n0
C154
n0
C155
n0
C156
n0
C157
n0
C158
n0
C159
n0
O0 0
o54
53
o2
n10
o2
o2
n1.02
v141
o0
n-8
v132
o2
n10
o2
o2
n1.03
v142
o0
n-3.9
v133
o2
n10
o2
o2
n1.04
v143
o0
n-5.5
v134
o2
n10
o2
o2
n1.01
v144
o0
n-4.5
v135
o2
n10
o2
v145
o0
n-4.1
v136
o2
n10
o2
o2
n1.03
v146
o0
n-6.5
v137
o2
n10
o2
o2
n1.05
v147
o0
n-4.4
v138
o2
n10
o2
o2
n1.07
v148
o0
n-8.1
v139
o2
n10
o2
o2
n1.09
v149
o0
n-5.2
v140
o2
n62.19575950175382
o5
v0
n1.29
o2
n120.75000000000001
o5
v1
n1.29
o2
n66.27233585743
o5
v2
n1.29
o2
n71.12357204190465
o5
v3
n1.29
o2
n104.92765364764429
o5
v4
n1.29
o2
n87.95808660947556
o5
v5
n1.29
o2
n87.95808660947556
o5
v6
n1.29
o2
n87.95808660947556
o5
v7
n1.29
o2
n87.95808660947556
o5
v8
n1.29
o2
n71.12357204190465
o5
v9
n1.29
o2
n87.95808660947556
o5
v10
n1.29
o2
n92.8940929230702
o5
v11
n1.29
o2
n115.71651783561413
o5
v12
n1.29
o2
n69
o5
v13
n1.29
o2
n87.95808660947556
o5
v14
n1.29
o2
n138
o5
v15
n1.29
o2
n73.18555185280766
o5
v16
n1.29
o2
n77.14434522374276
o5
v17
n1.29
o2
n77.14434522374276
o5
v18
n1.29
o2
n73.18555185280766
o5
v19
n1.29
o2
n77.14434522374276
o5
v20
n1.29
o2
n87.95808660947556
o5
v21
n1.29
o2
n86.25000000000001
o5
v22
n1.29
o2
n109.0985792758091
o5
v23
n1.29
o2
n77.14434522374276
o5
v24
n1.29
o2
n73.18555185280766
o5
v25
n1.29
o2
n189.75000000000003
o5
v26
n1.29
o2
n103.72974501077307
o5
v27
n1.29
o2
n138
o5
v28
n1.29
o2
n124.39151900350764
o5
v29
n1.29
o2
n77.14434522374276
o5
v30
n1.29
o2
n163.64786891371364
o5
v31
n1.29
o2
n97.58073580374356
o5
v32
n1.29
o2
n97.58073580374356
o5
v33
n1.29
o2
n125.58189559008895
o5
v34
n1.29
o2
n100.58392018608144
o5
v35
n1.29
o2
n109.0985792758091
o5
v36
n1.29
o2
n125.58189559008895
o5
v37
n1.29
o2
n77.14434522374276
o5
v38
n1.29
o2
n77.14434522374276
o5
v39
n1.29
o2
n180.095287278707
o5
v40
n1.29
o2
n121.97591975467945
o5
v41
n1.29
o2
n97.58073580374356
o5
v42
n1.29
o2
n147.38406460672743
o5
v43
n1.29
x81
0 0.5477225575051661
1 0.5477225575051661
2 0.5477225575051661
3 0.5477225575051661
4 0.5477225575051661
5 0.5477225575051661
6 0.5477225575051661
7 0.5477225575051661
8 0.5477225575051661
9 0.5477225575051661
10 0.5477225575051661
11 0.5477225575051661
12 0.5477225575051661
13 0.5477225575051661
14 0.5477225575051661
15 0.5477225575051661
16 0.5477225575051661
17 0.5477225575051661
18 0.5477225575051661
19 0.5477225575051661
20 0.5477225575051661
21 0.5477225575051661
22 0.5477225575051661
23 0.5477225575051661
24 0.5477225575051661
25 0.5477225575051661
26 0.5477225575051661
27 0.5477225575051661
28 0.5477225575051661
29 0.5477225575051661
30 0.5477225575051661
31 0.5477225575051661
32 0.5477225575051661
33 0.5477225575051661
34 0.5477225575051661
35 0.5477225575051661
36 0.5477225575051661
37 0.5477225575051661
38 0.5477225575051661
39 0.5477225575051661
40 0.5477225575051661
41 0.5477225575051661
42 0.5477225575051661
43 0.5477225575051661
132 13
133 8.9
134 10.5
135 9.5
136 9.1
137 11.5
138 9.4
139 13.1
140 10.2
141 2.372508368585617
142 1.397570719146588
143 1.4960250137943718
144 1.2366819937465514
145 1.2799058304211879
146 1.0373720801912818
147 1.0205628103733675
148 1.3903667463674818
149 1.8250064373735513
150 19.793
151 23.359499999999997
152 19.246499999999997
153 15.9925
154 20.23
155 19.886
156 23.028
157 15.1365
158 15.9455
159 18.351
160 21.904
161 18.363500000000002
162 21.613500000000002
163 24.172
164 21.3645
165 24.990000000000002
166 19.661
167 23.6155
168 25.3275
r
4 0
4 0
4 0
4 0
4 0
4 0
4 0
4 0
4 0
4 0
4 0
4 0
4 0
4 0
4 0
4 0
4 0
4 0
4 0
4 0
4 0
4 0
4 0
4 0
4 0
4 0
4 0
4 0
4 0
4 0
4 0
4 0
4 0
4 0
4 0
4 0
4 0
4 0
4 0
4 0
4 0
4 0
4 0
4 0
4 0.0386
4 1.1519
4 1.0493
4 0.2785
4 0.106
4 0.8372
4 0.8256
4 0.0473
4 0.0491
4 0.5702
4 0.7608
4 0.1727
4 1.1027
4 0.8944
4 1.1529
4 1.078
4 0.2522
4 1.3631
4 1.3255
4 0
4 0
4 0
4 0
4 0
4 0
4 0
4 0
4 0
4 0
5 1 170
4 0
5 1 171
4 0
5 1 172
4 0
5 1 173
4 0
5 1 174
4 0
5 1 175
4 0
5 1 176
4 0
5 1 177
4 0
5 1 178
4 0
5 1 179
4 0
5 1 180
4 0
5 1 181
4 0
5 1 182
4 0
5 1 183
4 0
5 1 184
4 0
5 1 185
4 0
5 1 186
4 0
5 1 187
4 0
5 1 188
4 0
5 1 189
4 0
5 1 190
4 0
5 1 191
4 0
5 1 192
4 0
5 1 193
4 0
5 1 194
4 0
5 1 195
4 0
5 1 196
4 0
5 1 197
4 0
5 1 198
4 0
5 1 199
4 0
5 1 200
4 0
5 1 201
4 0
5 1 202
4 0
5 1 203
4 0
5 1 204
4 0
5 1 205
4 0
5 1 206
4 0
5 1 207
4 0
5 1 208
4 0
5 1 209
4 0
5 1 210
4 0
5 1 211
4 0
5 1 212
4 0
5 1 213
b
0 0.15 2
0 0.15 2
0 0.15 2
0 0.15 2
0 0.15 2
0 0.15 2
0 0.15 2
0 0.15 2
0 0.15 2
0 0.15 2
0 0.15 2
0 0.15 2
0 0.15 2
0 0.15 2
0 0.15 2
0 0.15 2
0 0.15 2
0 0.15 2
0 0.15 2
0 0.15 2
0 0.15 2
0 0.15 2
0 0.15 2
0 0.15 2
0 0.15 2
0 0.15 2
0 0.15 2
0 0.15 2
0 0.15 2
0 0.15 2
0 0.15 2
0 0.15 2
0 0.15 2
0 0.15 2
0 0.15 2
0 0.15 2
0 0.15 2
0 0.15 2
0 0.15 2
0 0.15 2
0 0.15 2
0 0.15 2
0 0.15 2
0 0.15 2
0 0 2
0 0 2
0 0 2
0 0 2
0 0 2
0 0 2
0 0 2
0 0 2
0 0 2
0 0 2
0 0 2
0 0 2
0 0 2
0 0 2
0 0 2
0 0 2
0 0 2
0 0 2
0 0 2
0 0 2
0 0 2
0 0 2
0 0 2
0 0 2
0 0 2
0 0 2
0 0 2
0 0 2
0 0 2
0 0 2
0 0 2
0 0 2
0 0 2
0 0 2
0 0 2
0 0 2
0 0 2
0 0 2
0 0 2
0 0 2
0 0 2
0 0 2
0 0 2
0 0 2
0 0 2
0 0 2
0 0 2
0 0 2
0 0 2
0 0 2
0 0 2
0 0 2
0 0 2
0 0 2
0 0 2
0 0 2
0 0 2
0 0 2
0 0 2
0 0 2
0 0 2
0 0 2
0 0 2
0 0 2
0 0 2
0 0 2
0 0 2
0 0 2
0 0 2
0 0 2
0 0 2
0 0 2
0 0 2
0 0 2
0 0 2
0 0 2
0 0 2
0 0 2
0 0 2
0 0 2
0 0 2
0 0 2
0 0 2
0 0 2
0 0 2
0 0 2
0 0 2
0 0 2
2 8
2 3.9
2 5.5
2 4.5
2 4.1
2 6.5
2 4.4
2 8.1
2 5.2
0 0 9.88
0 0 5.82
0 0 6.23
0 0 5.15
0 0 5.33
0 0 4.32
0 0 4.25
0 0 5.79
0 0 7.6
2 14.793
2 18.359499999999997
2 14.2465
2 10.9925
2 15.23
2 14.886
2 18.028
2 10.1365
2 10.9455
2 13.350999999999999
2 16.904
2 13.3635
2 16.613500000000002
2 19.172
2 16.3645
2 19.990000000000002
2 14.661
2 18.6155
2 20.3275
2 0
2 0
2 0
2 0
2 0
2 0
2 0
2 0
2 0
2 0
2 0
2 0
2 0
2 0
2 0
2 0
2 0
2 0
2 0
2 0
2 0
2 0
2 0
2 0
2 0
2 0
2 0
2 0
2 0
2 0
2 0
2 0
2 0
2 0
2 0
2 0
2 0
2 0
2 0
2 0
2 0
2 0
2 0
2 0
k212
1
2
3
4
5
6
7
8
9
10
11
12
13
14
15
16
17
18
19
20
21
22
23
24
25
26
27
28
29
30
31
32
33
34
35
36
37
38
39
40
41
42
43
44
48
52
56
60
64
68
72
76
80
84
88
92
96
100
104
108
112
116
120
124
128
132
136
140
144
148
152
156
160
164
168
172
176
180
184
188
192
196
200
204
208
212
216
220
224
228
232
236
240
244
248
252
256
260
264
268
272
276
280
284
288
292
296
300
304
308
312
316
320
324
328
332
336
340
344
348
352
356
360
364
368
372
376
380
384
388
392
396
398
401
405
409
413
416
419
421
423
424
425
426
427
428
429
430
431
432
435
437
439
442
445
448
452
456
459
462
466
469
473
476
479
483
485
489
493
494
495
496
497
498
499
500
501
502
503
504
505
506
507
508
509
510
511
512
513
514
515
516
517
518
519
520
521
522
523
524
525
526
527
528
529
530
531
532
533
534
535
536
J0 5
0 0
44 0
88 0
132 1
150 -1
J1 5
1 0
45 0
89 0
132 1
156 -1
J2 5
2 0
46 0
90 0
133 1
151 -1
J3 5
3 0
47 0
91 0
133 1
152 -1
J4 5
4 0
48 0
92 0
133 1
157 -1
J5 5
5 0
49 0
93 0
134 1
156 -1
J6 5
6 0
50 0
94 0
134 1
154 -1
J7 5
7 0
51 0
95 0
134 1
157 -1
J8 5
8 0
52 0
96 0
134 1
160 -1
J9 5
9 0
53 0
97 0
135 1
155 -1
J10 5
10 0
54 0
98 0
135 1
158 -1
J11 5
11 0
55 0
99 0
135 1
159 -1
J12 5
12 0
56 0
100 0
135 1
162 -1
J13 5
13 0
57 0
101 0
136 1
159 -1
J14 5
14 0
58 0
102 0
136 1
161 -1
J15 5
15 0
59 0
103 0
136 1
162 -1
J16 5
16 0
60 0
104 0
136 1
164 -1
J17 5
17 0
61 0
105 0
137 1
161 -1
J18 5
18 0
62 0
106 0
137 1
165 -1
J19 5
19 0
63 0
107 0
137 1
166 -1
J20 5
20 0
64 0
108 0
138 1
164 -1
J21 5
21 0
65 0
109 0
138 1
166 -1
J22 5
22 0
66 0
110 0
138 1
168 -1
J23 5
23 0
67 0
111 0
139 1
163 -1
J24 5
24 0
68 0
112 0
139 1
165 -1
J25 5
25 0
69 0
113 0
140 1
167 -1
J26 5
26 0
70 0
114 0
140 1
168 -1
J27 5
27 0
71 0
115 0
150 1
151 -1
J28 5
28 0
72 0
116 0
152 -1
153 1
J29 5
29 0
73 0
117 0
154 1
156 -1
J30 5
30 0
74 0
118 0
150 -1
154 1
J31 5
31 0
75 0
119 0
155 1
157 -1
J32 5
32 0
76 0
120 0
153 -1
155 1
J33 5
33 0
77 0
121 0
156 1
160 -1
J34 5
34 0
78 0
122 0
153 -1
158 1
J35 5
35 0
79 0
123 0
157 -1
159 1
J36 5
36 0
80 0
124 0
160 1
161 -1
J37 5
37 0
81 0
125 0
158 -1
162 1
J38 5
38 0
82 0
126 0
160 -1
163 1
J39 5
39 0
83 0
127 0
163 1
165 -1
J40 5
40 0
84 0
128 0
165 1
168 -1
J41 5
41 0
85 0
129 0
162 -1
167 1
J42 5
42 0
86 0
130 0
164 -1
167 1
J43 5
43 0
87 0
131 0
167 -1
168 1
J44 6
44 1
71 -1
74 1
88 -1
115 1
118 -1
J45 4
46 1
71 1
90 -1
115 -1
J46 4
47 1
72 1
91 -1
116 -1
J47 6
72 -1
76 1
78 1
116 1
120 -1
122 -1
J48 6
50 1
73 -1
74 -1
94 -1
117 1
118 1
J49 6
53 1
75 -1
76 -1
97 -1
119 1
120 1
J50 8
45 1
49 1
73 1
77 -1
89 -1
93 -1
117 -1
121 1
J51 8
48 1
51 1
75 1
79 1
92 -1
95 -1
119 -1
123 -1
J52 6
54 1
78 -1
81 1
98 -1
122 1
125 -1
J53 6
55 1
57 1
79 -1
99 -1
101 -1
123 1
J54 8
52 1
77 1
80 -1
82 1
96 -1
121 -1
124 1
126 -1
J55 6
58 1
61 1
80 1
102 -1
105 -1
124 -1
J56 8
56 1
59 1
81 -1
85 1
100 -1
103 -1
125 1
129 -1
J57 6
67 1
82 -1
83 -1
111 -1
126 1
127 1
J58 6
60 1
64 1
86 1
104 -1
108 -1
130 -1
J59 8
62 1
68 1
83 1
84 -1
106 -1
112 -1
127 -1
128 1
J60 4
63 1
65 1
107 -1
109 -1
J61 8
69 1
85 -1
86 -1
87 1
113 -1
129 1
130 1
131 -1
J62 8
66 1
70 1
84 1
87 -1
110 -1
114 -1
128 -1
131 1
J63 5
44 -1
45 -1
88 1
89 1
141 1
J64 7
46 -1
47 -1
48 -1
90 1
91 1
92 1
142 1
J65 9
49 -1
50 -1
51 -1
52 -1
93 1
94 1
95 1
96 1
143 1
J66 9
53 -1
54 -1
55 -1
56 -1
97 1
98 1
99 1
100 1
144 1
J67 9
57 -1
58 -1
59 -1
60 -1
101 1
102 1
103 1
104 1
145 1
J68 7
61 -1
62 -1
63 -1
105 1
106 1
107 1
146 1
J69 7
64 -1
65 -1
66 -1
108 1
109 1
110 1
147 1
J70 5
67 -1
68 -1
111 1
112 1
148 1
J71 5
69 -1
70 -1
113 1
114 1
149 1
J72 2
44 -1
169 1
J73 1
88 1
J74 2
45 -1
170 1
J75 1
89 1
J76 2
46 -1
171 1
J77 1
90 1
J78 2
47 -1
172 1
J79 1
91 1
J80 2
48 -1
173 1
J81 1
92 1
J82 2
49 -1
174 1
J83 1
93 1
J84 2
50 -1
175 1
J85 1
94 1
J86 2
51 -1
176 1
J87 1
95 1
J88 2
52 -1
177 1
J89 1
96 1
J90 2
53 -1
178 1
J91 1
97 1
J92 2
54 -1
179 1
J93 1
98 1
J94 2
55 -1
180 1
J95 1
99 1
J96 2
56 -1
181 1
J97 1
100 1
J98 2
57 -1
182 1
J99 1
101 1
J100 2
58 -1
183 1
J101 1
102 1
J102 2
59 -1
184 1
J103 1
103 1
J104 2
60 -1
185 1
J105 1
104 1
J106 2
61 -1
186 1
J107 1
105 1
J108 2
62 -1
187 1
J109 1
106 1
J110 2
63 -1
188 1
J111 1
107 1
J112 2
64 -1
189 1
J113 1
108 1
J114 2
65 -1
190 1
J115 1
109 1
J116 2
66 -1
191 1
J117 1
110 1
J118 2
67 -1
192 1
J119 1
111 1
J120 2
68 -1
193 1
J121 1
112 1
J122 2
69 -1
194 1
J123 1
113 1
J124 2
70 -1
195 1
J125 1
114 1
J126 2
71 -1
196 1
J127 1
115 1
J128 2
72 -1
197 1
J129 1
116 1
J130 2
73 -1
198 1
J131 1
117 1
J132 2
74 -1
199 1
J133 1
118 1
J134 2
75 -1
200 1
J135 1
119 1
J136 2
76 -1
201 1
J137 1
120 1
J138 2
77 -1
202 1
J139 1
121 1
J140 2
78 -1
203 1
J141 1
122 1
J142 2
79 -1
204 1
J143 1
123 1
J144 2
80 -1
205 1
J145 1
124 1
J146 2
81 -1
206 1
J147 1
125 1
J148 2
82 -1
207 1
J149 1
126 1
J150 2
83 -1
208 1
J151 1
127 1
J152 2
84 -1
209 1
J153 1
128 1
J154 2
85 -1
210 1
J155 1
129 1
J156 2
86 -1
211 1
J157 1
130 1
J158 2
87 -1
212 1
J159 1
131 1
G0 150
0 0
1 0
2 0
3 0
4 0
5 0
6 0
7 0
8 0
9 0
10 0
11 0
12 0
13 0
14 0
15 0
16 0
17 0
18 0
19 0
20 0
21 0
22 0
23 0
24 0
25 0
26 0
27 0
28 0
29 0
30 0
31 0
32 0
33 0
34 0
35 0
36 0
37 0
38 0
39 0
40 0
41 0
42 0
43 0
44 1
45 1
46 1
47 1
48 1
49 1
50 1
51 1
52 1
53 1
54 1
55 1
56 1
57 1
58 1
59 1
60 1
61 1
62 1
63 1
64 1
65 1
66 1
67 1
68 1
69 1
70 1
71 1
72 1
73 1
74 1
75 1
76 1
77 1
78 1
79 1
80 1
81 1
82 1
83 1
84 1
85 1
86 1
87 1
88 1
89 1
90 1
91 1
92 1
93 1
94 1
95 1
96 1
97 1
98 1
99 1
100 1
101 1
102 1
103 1
104 1
105 1
106 1
107 1
108 1
109 1
110 1
111 1
112 1
113 1
114 1
115 1
116 1
117 1
118 1
119 1
120 1
121 1
122 1
123 1
124 1
125 1
126 1
127 1
128 1
129 1
130 1
131 1
132 0
133 0
134 0
135 0
136 0
137 0
138 0
139 0
140 0
141 2.9
142 2.3000000000000003
143 1.3
144 1.4000000000000001
145 0.6
146 1.9
147 0.8999999999999999
148 2.8000000000000003
149 2.1
